20 64
1 5 1
1 6 1
1 7 1
1 10 1
1 15 1
1 17 1
2 5 1
2 8 1
2 10 1
2 11 1
2 12 1
2 15 1
2 18 1
3 5 1
3 6 1
3 7 1
3 11 1
4 5 1
4 6 1
4 8 1
4 9 1
4 13 1
4 14 1
4 15 1
4 18 1
5 6 1
5 7 1
5 8 1
5 9 1
5 13 1
5 16 1
5 17 1
5 19 1
5 20 1
6 7 1
6 8 1
6 9 1
6 10 1
6 11 1
6 13 1
6 14 1
6 16 1
6 17 1
6 18 1
6 19 1
6 20 1
7 9 1
7 10 1
7 13 1
7 17 1
7 19 1
8 11 1
8 14 1
8 15 1
9 12 1
9 19 1
9 20 1
10 12 1
11 12 1
11 14 1
11 16 1
11 18 1
13 20 1
14 16 1
